language ESSENCE' 1.0

letting jobs = 102
letting horizon = 799
letting resourcesRenew = 2
letting resourcesNonrenew = 2
letting resourceLimits = [59, 58, 488, 507]
letting successors = [[2, 3, 4, 5, 6, 7, 8, 9, 10, 11, 12, 13, 14, 15, 16, 17, 18, 20, 21, 22, 23, 24, 26, 27, 28, 29, 30, 31, 34, 36, 38, 39], [87, 85, 70, 65, 64, 63, 62, 60, 59, 56, 55, 54, 51, 49, 48, 47, 46, 44, 43, 42, 40, 37], [101, 87, 86, 82, 72, 70, 64, 63, 61, 60, 58, 56, 54, 49, 46, 45, 42, 19], [101, 90, 87, 86, 85, 84, 83, 82, 73, 72, 63, 62, 60, 58, 55, 54, 52, 51, 49, 48, 46, 43, 42], [87, 82, 73, 64, 61, 60, 59, 58, 55, 47, 45, 42, 40, 33, 32], [99, 85, 84, 82, 73, 72, 68, 60, 59, 57, 55, 54, 50, 48, 45, 42, 41], [101, 83, 64, 61, 55, 54, 52, 49, 43, 42, 32, 25], [101, 100, 92, 86, 83, 74, 72, 70, 69, 61, 59, 58, 53, 52, 48, 43, 35], [97, 92, 88, 87, 83, 71, 70, 69, 68, 63, 62, 56, 55, 45, 42, 37], [82, 74, 70, 68, 65, 64, 62, 60, 59, 40, 37], [100, 93, 91, 86, 84, 82, 73, 71, 70, 66, 64, 61, 59, 58, 54, 53, 49, 44], [99, 87, 84, 79, 75, 71, 70, 69, 68, 62, 59, 49, 48, 46, 42], [90, 85, 83, 69, 64, 53, 49, 46, 37], [100, 98, 92, 87, 86, 85, 82, 70, 68, 67, 66, 59, 58, 54, 48], [100, 98, 85, 84, 73, 68, 67, 66, 60, 58, 57, 55, 48, 43], [98, 94, 92, 91, 89, 87, 86, 85, 84, 70, 60, 59, 58, 52, 49], [99, 90, 82, 79, 72, 70, 69, 64, 59, 53, 48, 42], [97, 92, 91, 90, 84, 82, 70, 60, 47, 42, 40], [100, 91, 85, 83, 73, 71, 53, 52, 47, 43], [101, 100, 99, 93, 92, 90, 85, 72, 63, 55, 52, 49], [99, 98, 96, 94, 93, 91, 90, 88, 87, 86, 82, 66, 62, 59, 54], [100, 99, 96, 95, 92, 90, 87, 85, 79, 72, 68, 67, 66, 63, 59], [99, 98, 97, 96, 94, 88, 87, 83, 80, 68, 64, 62, 54], [99, 97, 96, 94, 92, 90, 87, 84, 83, 79, 78, 42], [100, 98, 96, 94, 90, 89, 87, 86, 79, 77, 70, 69, 66, 59, 58], [101, 100, 99, 98, 97, 90, 87, 86, 81, 79, 78, 73, 68, 48], [98, 96, 95, 94, 93, 91, 90, 89, 88, 79, 77, 69, 66, 59, 58], [100, 99, 91, 88, 87, 80, 71, 69, 67, 64, 60, 46], [99, 97, 96, 94, 82, 73, 68, 61, 56, 54], [99, 98, 97, 94, 93, 89, 85, 84, 83, 79, 77, 69, 67, 66, 64], [100, 96, 95, 94, 93, 91, 89, 85, 82, 66, 64, 58, 55], [100, 99, 97, 96, 95, 92, 91, 88, 85, 79, 78, 71, 68, 67, 66], [100, 99, 98, 94, 92, 84, 83, 81, 80, 79, 78, 71, 70, 68, 67], [101, 95, 90, 88, 87, 86, 81, 53, 47], [98, 97, 96, 95, 94, 91, 90, 88, 87, 78, 76, 68, 66, 60], [100, 98, 96, 94, 92, 91, 79, 70, 68, 66, 55], [100, 96, 94, 93, 91, 86, 72, 67, 66, 61, 58], [100, 96, 90, 87, 85, 79, 77, 68, 67, 66, 58], [100, 98, 89, 88, 67, 66, 60, 55], [98, 96, 95, 94, 93, 89, 88, 79, 77, 76, 69, 66], [95, 94, 93, 87, 80, 71, 69, 61], [100, 98, 95, 93, 89, 81, 77, 67, 66], [99, 96, 95, 94, 89, 81, 79, 78, 77], [99, 97, 96, 95, 90, 83, 79, 78, 77], [100, 98, 95, 90, 81, 80, 79, 67], [98, 97, 92, 81, 78, 77, 76], [94, 80, 79, 78, 77, 68], [96, 95, 94, 91, 80, 77], [97, 95, 88, 78, 77, 76], [94, 91, 88, 86, 79, 76], [97, 79, 78, 76, 68], [96, 79, 67, 66], [98, 97, 94, 77, 76], [89, 79, 77, 69], [81, 78, 77, 76], [84, 80, 79, 78], [90, 86, 80, 76], [99, 80, 78], [97, 78, 76], [93, 81, 79], [79, 78, 76], [100, 77, 76], [94, 91, 81], [92, 78], [90, 81], [80], [76], [93], [81], [95], [77], [77], [92], [78], [90], [102], [102], [102], [102], [102], [102], [102], [102], [102], [102], [102], [102], [102], [102], [102], [102], [102], [102], [102], [102], [102], [102], [102], [102], [102], [102], []]
letting durations = [[0], [1, 6, 7], [3, 8, 10], [1, 5, 7], [1, 4, 8], [1, 4, 10], [1, 2, 7], [5, 6, 7], [2, 6, 10], [4, 8, 9], [4, 5, 6], [4, 5, 7], [3, 6, 8], [3, 4, 7], [3, 7, 10], [1, 3, 4], [5, 7, 8], [5, 6, 9], [1, 6, 10], [4, 6, 7], [7, 8, 9], [5, 7, 9], [4, 5, 10], [2, 4, 6], [1, 3, 7], [3, 4, 8], [3, 5, 6], [2, 4, 7], [2, 7, 10], [4, 5, 9], [1, 2, 7], [1, 7, 8], [5, 6, 10], [1, 2, 6], [3, 7, 10], [2, 5, 8], [5, 6, 7], [1, 3, 10], [3, 4, 5], [1, 8, 9], [1, 3, 6], [1, 8, 9], [1, 5, 6], [2, 9, 10], [1, 4, 8], [3, 6, 8], [1, 4, 5], [5, 6, 9], [1, 5, 7], [3, 9, 10], [2, 7, 8], [3, 6, 8], [1, 5, 8], [1, 9, 10], [4, 5, 10], [7, 9, 10], [2, 3, 10], [1, 5, 7], [3, 4, 8], [1, 2, 10], [2, 5, 10], [2, 4, 8], [3, 7, 10], [4, 5, 8], [2, 3, 4], [6, 8, 10], [6, 7, 8], [1, 5, 6], [1, 2, 3], [5, 6, 8], [2, 4, 6], [5, 7, 8], [1, 5, 10], [2, 6, 10], [1, 2, 6], [2, 3, 9], [2, 3, 4], [2, 5, 10], [4, 5, 7], [4, 5, 10], [4, 5, 9], [2, 5, 9], [3, 4, 10], [4, 6, 8], [3, 6, 7], [1, 5, 8], [3, 4, 7], [2, 3, 10], [2, 4, 6], [2, 3, 8], [2, 3, 6], [2, 7, 8], [4, 5, 6], [1, 9, 10], [1, 2, 6], [1, 4, 5], [2, 5, 7], [2, 7, 9], [2, 3, 9], [2, 6, 10], [2, 6, 7], [0]]
letting resourceUsage = [[[0, 0, 0, 0]], [[9, 9, 5, 4], [9, 6, 4, 2], [8, 4, 3, 1]], [[8, 7, 9, 5], [6, 6, 4, 3], [5, 5, 3, 3]], [[9, 3, 8, 4], [5, 1, 7, 2], [1, 1, 5, 1]], [[8, 8, 3, 9], [7, 8, 2, 5], [5, 8, 1, 4]], [[5, 7, 5, 10], [2, 6, 5, 7], [1, 5, 5, 2]], [[5, 5, 3, 6], [3, 4, 3, 4], [3, 3, 3, 4]], [[2, 9, 6, 6], [1, 6, 3, 4], [1, 5, 3, 4]], [[9, 7, 8, 7], [5, 7, 7, 4], [3, 5, 6, 3]], [[7, 6, 8, 5], [7, 4, 8, 4], [6, 3, 4, 4]], [[7, 3, 4, 7], [7, 2, 4, 4], [7, 2, 2, 2]], [[4, 6, 4, 4], [3, 6, 4, 4], [1, 5, 4, 4]], [[4, 4, 8, 3], [3, 3, 6, 1], [3, 3, 5, 1]], [[8, 4, 5, 8], [7, 3, 3, 6], [6, 3, 3, 4]], [[6, 4, 8, 8], [6, 4, 7, 7], [6, 4, 3, 3]], [[3, 5, 3, 5], [2, 3, 3, 5], [2, 1, 1, 2]], [[5, 9, 6, 8], [4, 5, 2, 7], [3, 4, 1, 3]], [[9, 10, 8, 7], [7, 5, 4, 6], [4, 5, 2, 6]], [[9, 7, 10, 3], [8, 6, 8, 3], [8, 2, 4, 2]], [[1, 8, 7, 8], [1, 8, 6, 7], [1, 8, 6, 6]], [[8, 8, 6, 5], [6, 4, 6, 3], [5, 3, 5, 1]], [[3, 10, 8, 7], [3, 9, 4, 6], [1, 8, 3, 6]], [[7, 2, 7, 6], [7, 2, 6, 5], [7, 2, 4, 5]], [[8, 7, 8, 8], [7, 7, 5, 7], [6, 5, 3, 5]], [[4, 8, 4, 6], [2, 4, 2, 4], [1, 2, 2, 2]], [[7, 5, 9, 9], [4, 4, 7, 5], [3, 4, 5, 5]], [[7, 7, 3, 5], [5, 5, 1, 5], [4, 4, 1, 3]], [[9, 4, 9, 8], [8, 2, 5, 7], [7, 2, 3, 7]], [[7, 2, 9, 9], [7, 1, 9, 7], [7, 1, 8, 6]], [[1, 8, 6, 7], [1, 6, 6, 7], [1, 3, 3, 7]], [[10, 10, 6, 9], [7, 8, 5, 7], [4, 6, 5, 7]], [[6, 8, 7, 9], [4, 7, 4, 4], [4, 5, 4, 2]], [[5, 5, 4, 7], [4, 4, 4, 4], [2, 3, 2, 4]], [[8, 9, 8, 7], [6, 7, 6, 4], [4, 7, 6, 4]], [[3, 5, 5, 5], [2, 5, 3, 4], [2, 5, 3, 3]], [[6, 3, 8, 8], [5, 3, 6, 5], [5, 1, 5, 3]], [[8, 2, 8, 5], [6, 1, 6, 2], [4, 1, 5, 2]], [[10, 7, 6, 8], [7, 5, 4, 5], [5, 4, 4, 2]], [[7, 8, 4, 7], [7, 3, 3, 7], [7, 1, 1, 6]], [[6, 3, 2, 10], [6, 2, 2, 8], [2, 2, 2, 7]], [[6, 10, 7, 6], [6, 10, 6, 6], [5, 10, 6, 6]], [[4, 8, 5, 10], [4, 7, 4, 8], [4, 7, 2, 7]], [[4, 6, 8, 10], [3, 5, 7, 7], [3, 3, 6, 6]], [[7, 3, 3, 9], [6, 2, 1, 8], [4, 2, 1, 8]], [[6, 8, 4, 7], [6, 8, 4, 6], [5, 7, 3, 7]], [[8, 4, 9, 9], [8, 2, 9, 5], [8, 2, 9, 3]], [[6, 6, 7, 7], [5, 4, 5, 5], [4, 3, 5, 2]], [[8, 9, 5, 5], [8, 8, 4, 3], [7, 7, 4, 3]], [[8, 9, 6, 7], [8, 6, 6, 4], [8, 5, 6, 3]], [[9, 8, 6, 5], [8, 7, 4, 4], [7, 7, 4, 4]], [[9, 10, 3, 10], [6, 8, 2, 4], [4, 8, 2, 1]], [[8, 3, 6, 4], [8, 2, 5, 4], [7, 2, 1, 3]], [[5, 9, 5, 5], [4, 9, 3, 3], [3, 9, 3, 3]], [[6, 7, 3, 9], [4, 5, 3, 7], [4, 5, 3, 6]], [[8, 8, 3, 7], [8, 6, 2, 6], [7, 6, 2, 4]], [[7, 7, 6, 4], [6, 6, 6, 3], [4, 6, 2, 3]], [[6, 6, 5, 8], [5, 5, 3, 8], [4, 5, 3, 8]], [[8, 9, 3, 4], [8, 9, 2, 4], [7, 9, 2, 4]], [[6, 9, 7, 4], [5, 4, 6, 3], [5, 3, 1, 3]], [[7, 5, 5, 5], [5, 4, 4, 4], [3, 4, 4, 2]], [[5, 10, 4, 5], [5, 9, 2, 2], [5, 9, 2, 1]], [[6, 2, 10, 10], [3, 1, 8, 5], [3, 1, 6, 2]], [[9, 9, 10, 5], [7, 8, 7, 5], [5, 8, 5, 5]], [[10, 5, 9, 9], [8, 5, 7, 5], [7, 5, 2, 5]], [[3, 8, 2, 10], [3, 4, 2, 8], [3, 1, 2, 8]], [[8, 5, 7, 1], [4, 4, 7, 1], [2, 3, 7, 1]], [[6, 6, 9, 6], [4, 4, 9, 6], [4, 2, 9, 6]], [[10, 1, 6, 5], [10, 1, 6, 3], [10, 1, 6, 2]], [[10, 8, 5, 1], [10, 4, 2, 1], [10, 2, 1, 1]], [[6, 6, 7, 7], [5, 6, 7, 6], [1, 4, 7, 5]], [[4, 7, 2, 5], [4, 6, 2, 5], [4, 5, 2, 3]], [[10, 7, 10, 10], [6, 6, 8, 8], [1, 6, 7, 7]], [[8, 9, 7, 3], [6, 9, 7, 1], [6, 9, 6, 1]], [[4, 4, 7, 8], [3, 3, 5, 5], [2, 2, 4, 1]], [[6, 2, 3, 8], [3, 2, 3, 5], [2, 2, 3, 5]], [[8, 9, 8, 1], [8, 8, 8, 2], [8, 8, 8, 1]], [[6, 8, 4, 1], [5, 3, 3, 1], [4, 3, 1, 1]], [[2, 9, 4, 7], [1, 8, 4, 4], [1, 8, 4, 2]], [[6, 10, 9, 7], [6, 8, 9, 5], [6, 6, 9, 2]], [[8, 9, 4, 5], [3, 9, 2, 2], [1, 9, 2, 1]], [[5, 6, 7, 4], [2, 6, 7, 2], [2, 3, 4, 1]], [[6, 2, 7, 6], [6, 2, 5, 6], [3, 1, 5, 4]], [[10, 4, 3, 9], [8, 2, 3, 9], [8, 2, 1, 9]], [[4, 6, 5, 6], [3, 4, 5, 5], [3, 4, 5, 4]], [[3, 6, 5, 7], [3, 4, 5, 4], [3, 1, 5, 1]], [[8, 4, 1, 3], [6, 2, 1, 2], [3, 1, 1, 1]], [[6, 9, 4, 5], [5, 4, 4, 5], [4, 3, 4, 5]], [[8, 7, 6, 4], [7, 6, 6, 3], [7, 6, 6, 2]], [[7, 9, 1, 8], [7, 8, 1, 5], [5, 7, 1, 4]], [[5, 6, 7, 2], [3, 5, 5, 1], [2, 4, 3, 1]], [[7, 8, 7, 5], [7, 7, 6, 5], [7, 3, 5, 5]], [[7, 4, 9, 7], [6, 3, 9, 5], [5, 2, 9, 4]], [[5, 5, 5, 6], [5, 4, 4, 4], [4, 3, 2, 4]], [[8, 7, 3, 5], [8, 5, 3, 4], [8, 3, 2, 4]], [[10, 10, 6, 7], [6, 8, 6, 7], [6, 8, 4, 6]], [[6, 8, 7, 7], [3, 5, 7, 6], [1, 4, 6, 6]], [[7, 6, 3, 4], [7, 5, 2, 2], [7, 5, 2, 1]], [[6, 4, 6, 8], [3, 4, 4, 5], [2, 4, 4, 3]], [[8, 8, 8, 9], [7, 7, 6, 7], [4, 7, 4, 6]], [[6, 7, 7, 7], [5, 4, 5, 6], [4, 3, 3, 5]], [[6, 7, 8, 7], [5, 5, 8, 5], [5, 5, 8, 4]], [[0, 0, 0, 0]]]
